LAMMPS (29 Sep 2021 - Update 2)
OMP_NUM_THREADS environment is not set. Defaulting to 1 thread. (src/comm.cpp:98)
  using 1 OpenMP thread(s) per MPI task
#Инициализация симмуляции
units           real
atom_style      full
boundary        p p p

# Настройка силового поля
pair_style      lj/cut/tip4p/long 1 2 1 1 0.1546 12
kspace_style    pppm/tip4p 1.0e-4

# Настройка связей и углов
bond_style      harmonic
angle_style     harmonic

read_data tip4p-NPT.data
Reading data file ...
  orthogonal box = (4.0952388 4.0952388 4.0952388) to (35.104760 35.104760 35.104760)
  2 by 2 by 2 MPI processor grid
  reading atoms ...
  3000 atoms
  reading velocities ...
  3000 velocities
  scanning bonds ...
  2 = max bonds/atom
  scanning angles ...
  1 = max angles/atom
  reading bonds ...
  2000 bonds
  reading angles ...
  1000 angles
Finding 1-2 1-3 1-4 neighbors ...
  special bond factors lj:    0        0        0       
  special bond factors coul:  0        0        0       
     2 = max # of 1-2 neighbors
     1 = max # of 1-3 neighbors
     1 = max # of 1-4 neighbors
     2 = max # of special neighbors
  special bonds CPU = 0.001 seconds
  read_data CPU = 0.056 seconds

# Параметры потенциалов
pair_coeff      1 1 0.18521 3.1589 # O-O
pair_coeff      2 2 0.0    0.0     # H-H
pair_coeff      1 2 0.0    0.0     # O-H
pair_modify     tail yes

bond_coeff      1 1000.0 0.9572    # O-H
angle_coeff     1 100.0 104.52     # H-O-H

# Группировка атомов
group           gH2O type 1 2
3000 atoms in group gH2O
group           oxygen type 1
1000 atoms in group oxygen
group           hydrogen type 2
2000 atoms in group hydrogen


# Настройка соседних списков
neighbor        3.0 bin
neigh_modify    delay 0 every 1 check yes


variable        massAll equal mass(all)/6.022e23
variable        volCm3  equal vol*1.0e-24
variable        density_sys equal v_massAll/v_volCm3
compute         msdO oxygen msd


# ------------------------NPT моделирование-------------------
fix npt all npt temp 300.0 300.0 100.0 iso 1.0 1.0 1000.0 # NPT термостат и баростат Ланжевена

fix msd all ave/time 1 1 1000 c_msdO[*] file msd_oxygen.out

thermo_style custom step temp press etotal v_density_sys pe ke c_msdO[4]
thermo 1000 # вывод каждые 1000 шагов


run 500000 # Запуск NPT моделирования на 40000 шагов
PPPM initialization ...
  extracting TIP4P info from pair style
  using 12-bit tables for long-range coulomb (src/kspace.cpp:340)
  G vector (1/distance) = 0.22791799
  grid = 15 15 15
  stencil order = 5
  estimated absolute RMS force accuracy = 0.033733287
  estimated relative force accuracy = 0.00010158679
  using double precision FFTW3
  3d grid and FFT values/proc = 2744 512
Neighbor list info ...
  update every 1 steps, delay 0 steps, check yes
  max neighbors/atom: 2000, page size: 100000
  master list distance cutoff = 15.3092
  ghost atom cutoff = 15.3092
  binsize = 7.6546, bins = 5 5 5
  1 neighbor lists, perpetual/occasional/extra = 1 0 0
  (1) pair lj/cut/tip4p/long, perpetual
      attributes: half, newton on
      pair build: half/bin/newton
      stencil: half/bin/3d
      bin: standard
Per MPI rank memory allocation (min/avg/max) = 9.216 | 9.222 | 9.228 Mbytes
Step Temp Press TotEng v_density_sys PotEng KinEng c_msdO[4] 
       0    195.71919    38623.268   -12235.893    1.0032592   -13985.515    1749.6218            0 
    1000    302.70851   -12494.713   -10272.922   0.99776517    -12978.97    2706.0474    1.6144394 
    2000    302.54091    1801.5141   -10147.917   0.99622141   -12852.466    2704.5491    3.6916936 
    3000    297.00298   -1631.9352   -10154.826     1.000926   -12809.869    2655.0431     5.423908 
    4000     291.2145    1244.3774   -10288.088    1.0175992   -12891.386    2603.2972    6.9220487 
    5000    294.98425    452.64564   -10306.706    1.0314464   -12943.703    2636.9968    8.0979696 
    6000    293.49146   -790.61434   -10308.226    1.0178669   -12931.878     2623.652     8.906615 
    7000    297.54922   -17.655445   -10298.862    1.0216424   -12958.789    2659.9262    10.510839 
    8000    305.34545    2093.7745   -10254.931    1.0155061   -12984.552    2729.6202    11.778922 
    9000    300.49383     -1112.06   -10425.782     1.017577   -13112.032    2686.2494    13.257709 
   10000    297.54594    120.82174   -10285.469    1.0092086   -12945.366    2659.8968    14.733592 
   11000    299.79061    2174.5918   -10180.913    1.0104719   -12860.876    2679.9629     16.09677 
   12000    301.34805   -1478.9201   -10370.113    1.0145009   -13063.999    2693.8856    17.209482 
   13000    293.43855    833.23948   -10465.766    1.0105396   -13088.945     2623.179    18.616735 
   14000    295.46039    284.46878   -10400.275    1.0089353   -13041.528    2641.2532    19.842721 
   15000    301.63915   -1379.4761    -10467.42    1.0193912   -13163.908    2696.4879    20.192223 
   16000    298.49824    1167.6752   -10322.778     1.038682   -12991.188    2668.4099    21.185677 
   17000    301.15785    1266.7912    -10425.71    1.0262231   -13117.896    2692.1853      22.9355 
   18000    302.45563   -2058.8951   -10324.777    1.0180161   -13028.563    2703.7867    24.166941 
   19000    294.43052    692.18228   -10401.454    1.0262517     -13033.5    2632.0467    24.919263 
   20000    303.31016   -2619.7148   -10344.588    1.0178467   -13056.014    2711.4258    26.159625 
   21000    311.88418    2505.0592   -10346.108    1.0157726   -13134.181    2788.0728    26.909145 
   22000    297.03915   -2101.9188    -10438.74     1.015127   -13094.107    2655.3664    28.086609 
   23000    300.84431   -1255.7374   -10477.022    1.0159977   -13166.404    2689.3824    28.857351 
   24000    302.44556   -808.35778   -10400.133     1.020676    -13103.83    2703.6968    30.065129 
   25000    305.93055    33.420205   -10308.106    1.0209341   -13042.957    2734.8506    30.437287 
   26000    299.92805    266.41149   -10459.169    1.0195943   -13140.361    2681.1916    30.701006 
   27000    304.24622   -132.40814   -10549.937    1.0171283   -13269.731    2719.7937    31.937681 
   28000    302.35997   -358.51694   -10473.282    1.0347394   -13176.213    2702.9317     32.93599 
   29000    296.19378     1197.002   -10658.957     1.026324   -13306.766    2647.8092    33.688925 
   30000    297.88795   -1178.7553   -10526.566    1.0205957   -13189.521    2662.9543    33.787379 
   31000    296.52529    1430.1779   -10652.534    1.0368119   -13303.307    2650.7728    34.362491 
   32000    308.72466    -169.1267   -10555.828    1.0240448   -13315.656    2759.8284    35.004629 
   33000    300.12879   -304.11599   -10640.237     1.010664   -13323.224    2682.9861    35.749922 
   34000    292.33974    1313.3858   -10723.002     1.004117   -13336.358    2613.3563    36.620121 
   35000    294.32806   -905.46081   -10669.618     1.015678   -13300.748    2631.1308    36.760193 
   36000    310.40431   -395.58841   -10519.092    1.0061344   -13293.936    2774.8436    37.189053 
   37000    303.93005    863.00983   -10587.826    1.0112947   -13304.794    2716.9672    37.757225 
   38000    294.88445    1011.7009   -10621.633    1.0083783   -13257.737    2636.1046    38.479711 
   39000    298.38398   -1932.2921   -10651.499    1.0143976   -13318.887    2667.3884    38.209673 
   40000    291.57987    65.042941   -10723.394    1.0164094   -13329.958    2606.5634    39.790044 
   41000      295.537    658.07834   -10765.911    1.0169791   -13407.849     2641.938    39.773498 
   42000    297.46951    1603.6266   -10674.675    1.0156893   -13333.889    2659.2136    40.585611 
   43000    295.17032    797.33511   -10699.195     1.008505   -13337.855    2638.6601    40.939414 
   44000    296.55815    -200.3269   -10708.372     1.008802   -13359.439    2651.0666    41.021871 
   45000    296.82005   -377.79114   -10698.356    1.0211043   -13351.764    2653.4078    41.066881 
   46000    297.19806   -1965.7268   -10797.272    1.0101321   -13454.059     2656.787    41.652014 
   47000    306.11131   -358.49378    -10715.29     1.013295   -13451.756    2736.4666    42.623798 
   48000    293.79154   -719.97666   -10771.998    1.0210314   -13398.333    2626.3345    42.308971 
   49000    305.25177   -367.93672   -10645.603    1.0278494   -13374.386    2728.7828     43.17042 
   50000    296.30123     50.28672   -10801.922    1.0264335   -13450.692    2648.7698    43.183949 
   51000    301.06966   -167.35293   -10665.284    1.0149581   -13356.681     2691.397    44.005564 
   52000    291.92913    1271.0194   -10774.255    1.0158695   -13383.941    2609.6856    43.887485 
   53000    302.91518   -213.17827   -10671.505    1.0232542     -13379.4    2707.8949     44.33014 
   54000     303.7868   -842.31184   -10701.299    1.0198706   -13416.986    2715.6867    44.581275 
   55000    307.26466   -1631.2458   -10616.006    1.0108307   -13362.783    2746.7769    46.506346 
   56000    297.07567    1138.2566   -10743.251     1.028815   -13398.944    2655.6929    45.468103 
   57000    301.93909    438.51221   -10746.281    1.0267047    -13445.45    2699.1692    46.290625 
   58000     308.1573    565.75114   -10687.773    1.0191254    -13442.53    2754.7565    46.724433 
   59000    291.62921    342.34997   -10832.577    1.0285276   -13439.581    2607.0045    47.504718 
   60000    309.22347    2704.3455   -10648.029    1.0266427   -13412.317    2764.2876    47.462646 
   61000    302.46677   -449.66235   -10732.341    1.0144613   -13436.227    2703.8864    48.421489 
   62000    292.84538   -306.09296   -10857.878    1.0109281   -13475.755    2617.8765    48.225124 
   63000    303.89784    1735.6073    -10723.28    1.0276261   -13439.959    2716.6794     47.71626 
   64000     307.0717    229.73811   -10661.114    1.0097149   -13406.166    2745.0519    48.670367 
   65000    304.63794    312.88246   -10721.726    1.0053633   -13445.021    2723.2954    49.346661 
   66000     296.5997    1462.7095   -10818.757    1.0165441   -13470.195     2651.438     49.70032 
   67000    300.17563   -71.302673   -10737.696    1.0145469   -13421.101    2683.4049    49.986372 
   68000    298.62565   -1240.9721   -10777.848    1.0252193   -13447.397    2669.5489    49.323274 
   69000     295.0717   -1321.6299   -10746.964    1.0335324   -13384.742    2637.7786    49.374593 
   70000    295.39345    -1103.047   -10829.957    1.0326439   -13470.612    2640.6547     49.79901 
   71000    295.65755    890.06947   -10763.422    1.0197521   -13406.438    2643.0157    51.673421 
   72000    303.62242    1662.5239    -10619.69    1.0339546   -13333.907    2714.2173    50.844497 
   73000    304.65098   -1175.6798   -10777.502    1.0368333   -13500.914     2723.412     51.10315 
   74000    301.52788   -660.84244   -10737.092    1.0230366   -13432.585    2695.4932    52.282095 
   75000    300.47364   -2139.8879   -10662.719    1.0304681   -13348.788    2686.0689     52.70959 
   76000    302.15529    1003.4131   -10682.961    1.0208359   -13384.063    2701.1019    53.163611 
   77000    301.40264    653.80954   -10789.925    1.0191739   -13484.298    2694.3737    53.676975 
   78000    298.16204    69.819683   -10691.869    1.0126434   -13357.274    2665.4044    54.453193 
   79000    300.05646     58.47838   -10696.837    1.0236856   -13379.177    2682.3395    54.232744 
   80000    289.93675   -781.20324    -10912.02    1.0271589   -13503.895    2591.8749    54.401515 
   81000    301.28228   -1334.5071   -10757.057    1.0195527   -13450.355    2693.2977    54.768179 
   82000    302.59267     1941.987    -10765.96    1.0183556   -13470.972    2705.0118    55.066428 
   83000    300.11067   -2947.8822   -10677.581    1.0168112   -13360.405    2682.8242    55.229202 
   84000    295.53727    2973.5128   -10744.653    1.0229277   -13386.593    2641.9405     55.39498 
   85000    302.09587    652.69302   -10810.967    1.0297345   -13511.537    2700.5707    55.993597 
   86000    294.59143    2781.4058    -10836.97     1.035609   -13470.455    2633.4851    56.154112 
   87000    304.12288    456.52244   -10764.245    1.0221391   -13482.936    2718.6911    56.677748 
   88000     288.6033   -2223.0163   -10990.961    1.0276037   -13570.916    2579.9546    57.309505 
   89000    300.61543    134.33422   -10883.861    1.0274943   -13571.198    2687.3364    57.330854 
   90000    299.96862   -56.919325   -10778.832    1.0301495   -13460.386    2681.5543    57.475309 
   91000    294.52032    1422.2809   -10871.044    1.0378254   -13503.894    2632.8495    57.214189 
   92000    298.81578    160.69522   -10871.003    1.0306572   -13542.251    2671.2485    57.612918 
   93000     288.1521    646.39476    -11023.56    1.0293978   -13599.481    2575.9211    58.587221 
   94000    302.28689   -191.13752   -10812.944     1.018585   -13515.222    2702.2783    59.038513 
   95000    295.46163   -1327.5391   -10831.508     1.028334   -13472.772    2641.2643    59.065829 
   96000    301.66343   -875.58184   -10702.964    1.0202596   -13399.669     2696.705    60.265136 
   97000    308.44008    352.34368   -10802.559    1.0203213   -13559.843    2757.2845    60.399408 
   98000    289.40866   -1411.4876   -10951.239    1.0159591   -13538.394    2587.1541     60.06995 
   99000     297.8151    2300.7778   -10838.541    1.0201403   -13500.844     2662.303    60.717957 
  100000    300.46745   -244.02941   -10923.002    1.0243091   -13609.015    2686.0136    60.663639 
  101000    298.72218    247.81225   -10814.107    1.0144092   -13484.519    2670.4118    61.407403 
  102000    302.94773     1952.047   -10784.127    1.0192013   -13492.313    2708.1859    61.787935 
  103000    297.29596   -2444.9186   -10917.386    1.0148332   -13575.049    2657.6621    62.526351 
  104000    299.00185    3098.4972   -10809.576    1.0242492   -13482.488    2672.9119    62.251765 
  105000    296.12443   -2894.0596   -10826.568    1.0220262   -13473.757    2647.1893    62.892524 
  106000     300.5141    2078.9233   -10845.418     1.033897   -13531.849    2686.4305    62.298488 
  107000    300.38287    1159.6535   -10941.875    1.0334874   -13627.132    2685.2574    62.846802 
  108000    303.90551    200.04682   -10890.398    1.0316909   -13607.146    2716.7479    63.249191 
  109000    308.49374     239.0923   -10749.141    1.0182484   -13506.906    2757.7642    64.468934 
  110000    297.29098   -71.405047   -10825.688    1.0185343   -13483.305    2657.6176    65.114304 
  111000    293.24162   -382.46831   -10968.389     1.023791   -13589.808    2621.4186    64.447477 
  112000    304.08179   -1480.1013   -10919.667    1.0213663    -13637.99    2718.3237    64.781778 
  113000    294.88547     3030.572   -11049.832    1.0247348   -13685.945    2636.1137    64.632714 
  114000    304.56264   -472.08847   -10949.129    1.0205559   -13671.751    2722.6223     65.08852 
  115000    299.87448    728.25189   -10862.641    1.0169011   -13543.353    2680.7128    64.729788 
  116000    296.42767    3481.4787   -10962.804    1.0143398   -13612.705    2649.9001    65.782758 
  117000    297.99972    286.90872   -10926.781    1.0090611   -13590.734    2663.9534    65.397987 
  118000     307.8339   -699.20053   -10773.842    1.0175852   -13525.708    2751.8655    65.417331 
  119000    297.14427    2218.9154   -10885.366    1.0234658   -13541.672    2656.3061    65.898277 
  120000    294.95918   -271.19152   -10972.893    1.0195563   -13609.666    2636.7727    66.198514 
  121000    300.39107    1546.5227   -10838.496    1.0197452   -13523.827    2685.3307    66.279935 
  122000    299.50781   -287.40831   -10849.319    1.0188393   -13526.754    2677.4349    66.456973 
  123000    295.93312    47.736296    -11020.56    1.0231191   -13666.039    2645.4791    66.628844 
  124000    301.12045   -578.13811   -10878.204     1.017181   -13570.055     2691.851    66.825522 
  125000    308.73766     726.4575    -10763.46    1.0222759   -13523.405    2759.9447    67.791829 
  126000     294.3218    -1853.272   -10906.163    1.0245556   -13537.238    2631.0748    66.995061 
  127000    301.01632    1439.2739   -10861.642    1.0207468   -13552.562    2690.9202    67.875589 
  128000     299.1581   -2560.3262    -10961.06    1.0273127   -13635.368    2674.3087    67.812786 
  129000    297.41916    -1588.401   -10906.369    1.0225743   -13565.132    2658.7635    68.256328 
  130000    297.48111    734.10842   -10983.148    1.0127923   -13642.465    2659.3173    69.167398 
  131000    292.70624   -392.62663   -11026.194    1.0143254   -13642.827    2616.6326    69.086928 
  132000     296.0405   -2419.7136   -10964.131    1.0101995    -13610.57    2646.4391    69.505456 
  133000    306.26636    1497.9873   -10853.363    1.0191553   -13591.216    2737.8526    69.651894 
  134000    300.68437     -274.064   -11018.779    1.0183433   -13706.731    2687.9527    69.722097 
  135000    312.89403    814.42864   -10758.743    1.0266024   -13555.843    2797.1003    68.950352 
  136000    306.72014   -466.25367    -10907.04    1.0266577   -13648.949    2741.9092    69.498661 
  137000    303.07309    2300.6434   -11002.279    1.0303261   -13711.585    2709.3066    69.375749 
  138000    298.49476    -2713.162   -10952.321    1.0194497     -13620.7    2668.3788    69.628767 
  139000    311.80711     -614.805   -10857.122     1.023146   -13644.506    2787.3838    70.059322 
  140000    299.88579   -237.87561   -10934.961    1.0226174   -13615.775    2680.8138    70.238601 
  141000    298.05382    414.76435    -10906.44    1.0259694   -13570.877     2664.437    70.178444 
  142000    295.10235     2588.174   -11069.963    1.0256709   -13708.016    2638.0525    70.926801 
  143000    302.14655   -161.28815   -10975.081    1.0231113   -13676.105    2701.0237    71.102255 
  144000    300.28612     128.3048   -10907.078    1.0133502   -13591.471    2684.3926    71.756309 
  145000    304.33981   -2377.1178   -10929.281    1.0143517   -13649.911    2720.6303    71.470619 
  146000    305.72866   -446.64476   -10899.778    1.0277349   -13632.824    2733.0459    71.070436 
  147000    303.96254      3118.45   -10924.413    1.0229532   -13641.671    2717.2578    71.970421 
  148000    298.33362   -1797.1134   -10918.867    1.0167194   -13585.805    2666.9383    71.992358 
  149000    295.84067   -1696.7939   -10948.723    1.0247673   -13593.375    2644.6527    72.172104 
  150000    304.50745   -596.58568   -10951.817    1.0190267   -13673.946    2722.1289    72.561933 
  151000     303.8411   -194.42956   -10970.239    1.0300865   -13686.411    2716.1721    72.303036 
  152000    295.78282    1154.5265    -11010.35     1.028285   -13654.486    2644.1355    72.458553 
  153000    300.55169   -1779.0164   -10974.022    1.0225449   -13660.789    2686.7666     72.37792 
  154000    298.38685    -309.4849   -11001.242     1.012377   -13668.656    2667.4141    73.614523 
  155000    304.82803    1497.8746   -10785.584    1.0202747   -13510.579    2724.9947    73.096868 
  156000    295.13581   -577.51957   -10925.192    1.0135151   -13563.544    2638.3516    74.430401 
  157000    302.56129    283.24569    -10891.41    1.0210447   -13596.141    2704.7314    73.304968 
  158000    297.98891    2673.8994   -10935.508     1.023404   -13599.364    2663.8568    74.102234 
  159000     296.4091   -1374.0269   -10978.646    1.0172493    -13628.38    2649.7341    73.239254 
  160000    303.07277   -898.40193   -10932.772    1.0114647   -13642.075    2709.3037    73.873194 
  161000    298.43738    1216.8326   -11098.023    1.0156165   -13765.888    2667.8659    73.609197 
  162000    305.97232     763.3878   -10969.507    1.0241802   -13704.731     2735.224    73.059011 
  163000    300.04278   -35.149782   -11062.282    1.0201951     -13744.5    2682.2172    73.560694 
  164000    301.04026    -481.0406   -10934.932    1.0170622   -13626.066    2691.1342    74.698306 
  165000    309.53473    1768.4633   -10857.887    1.0178257   -13624.957      2767.07    74.291359 
  166000    299.59734   -4031.3635   -10983.784    1.0188649   -13662.019    2678.2353    73.953749 
  167000    294.60773    1271.9492   -11060.729    1.0141243    -13694.36    2633.6309    74.282797 
  168000    294.32015    668.41674   -10946.728    1.0130774   -13577.788    2631.0601    74.669256 
  169000    298.69155   -1224.5372   -11027.856    1.0282635   -13697.994     2670.138    74.776773 
  170000    307.78631    1735.8675   -10957.714    1.0127077   -13709.154    2751.4401    74.909071 
  171000    296.00317   -828.75727   -11105.729    1.0166073   -13751.834    2646.1054    74.815632 
  172000    299.54322    363.46621   -11001.305    1.0139668   -13679.057    2677.7514    75.293944 
  173000    295.37925   -495.45779   -11025.093    1.0128368   -13665.621    2640.5279    74.920706 
  174000    307.40894     1018.812   -11047.676    1.0101364   -13795.743    2748.0666    75.870757 
  175000    299.35347    317.90168    -10991.79   0.99862818   -13667.845    2676.0552    76.159892 
  176000    302.71677    1251.5541   -10989.612    1.0103714   -13695.733    2706.1213     76.09673 
  177000    305.16227    514.99924   -10860.688    1.0148035    -13588.67    2727.9827    75.977551 
  178000    300.08834   -2772.6699   -10982.442    1.0110726   -13665.066    2682.6245    76.828032 
  179000    300.39961   -2634.3849   -10950.831    1.0069701   -13636.238    2685.4071    76.824186 
  180000    303.69695    2287.3538   -10853.187    1.0087643    -13568.07    2714.8835    76.688966 
  181000    298.56781   -1856.9188   -11021.819    1.0180561   -13690.851    2669.0319    76.608884 
  182000    301.81351    2303.0426   -10906.664    1.0192446   -13604.711    2698.0466    77.005921 
  183000    298.69142   -525.83832   -11081.009     1.020191   -13751.145    2670.1368    77.168873 
  184000    294.56284   -484.85608   -10908.692    1.0127898   -13541.922    2633.2296    76.871477 
  185000    296.78696    116.43093   -11016.922    1.0108481   -13670.034     2653.112    77.385131 
  186000    300.14145    1691.3557   -11030.874    1.0182243   -13713.974    2683.0993    76.923461 
  187000    297.42411   -1221.5647   -11048.992    1.0181109   -13707.799    2658.8078    77.208367 
  188000    302.16259    24.657303   -10980.186    1.0096064   -13681.353    2701.1671    77.626849 
  189000        301.4    1791.3555   -10953.321    1.0052813   -13647.671      2694.35    78.413195 
  190000    299.98149   -749.84578   -11015.094    1.0077934   -13696.764    2681.6694    78.273777 
  191000    298.93484    747.98067   -11033.905    1.0017869   -13706.217    2672.3128    78.484231 
  192000    296.02665   -3365.1018   -10944.963    0.9946996   -13591.279    2646.3152    79.070847 
  193000    300.94138   -107.17663    -11024.09   0.99834216    -13714.34    2690.2503    79.002459 
  194000    298.61098    232.66775   -10975.334   0.99405066   -13644.752    2669.4177    79.269202 
  195000    288.72346    1641.4428   -11139.472   0.99424806     -13720.5    2581.0287    79.524192 
  196000    292.90414   -2433.6931   -11069.967    1.0005271   -13688.369    2618.4017     79.27759 
  197000    300.46266    1317.1877   -10917.388    1.0039818   -13603.359    2685.9708    79.544717 
  198000    296.87389    1606.9815    -11033.06     1.007185   -13686.949    2653.8891    78.979592 
  199000    299.28044    -2627.028   -10939.367    1.0071127    -13614.77    2675.4023    78.784973 
  200000    287.62214    938.39236   -11093.791   0.99861059   -13664.974    2571.1835    79.314081 
  201000    301.00646    662.07503   -10969.136    1.0096504   -13659.968     2690.832    78.972483 
  202000    301.67776     693.2851   -10959.267    1.0061893     -13656.1    2696.8331    79.612729 
  203000    293.65797   -2333.2037   -10991.963    1.0045052   -13617.103    2625.1406    79.887952 
  204000    301.54875   -1387.6408   -10806.547    1.0106225   -13502.226    2695.6798     79.98003 
  205000    297.87873    579.95313   -10951.185     1.011605   -13614.057    2662.8718    79.070615 
  206000    300.16246   -544.67742   -10941.354    1.0212135   -13624.641    2683.2871    79.903214 
  207000    300.76814   -2528.9878   -10889.288    1.0235465   -13577.989    2688.7015    79.226057 
  208000    295.49058   -199.79606   -11033.045    1.0183763   -13674.568    2641.5231    79.878555 
  209000    299.87551    1873.9158    -10888.29    1.0180467   -13569.012    2680.7219    79.863505 
  210000    307.34605   -1914.1793   -10766.113    1.0240672   -13513.617    2747.5044    80.092235 
  211000    303.78327   -922.37584   -10845.811    1.0140628   -13561.466    2715.6551    80.194794 
  212000     302.9617    544.03217   -10984.838    1.0141872   -13693.149    2708.3108    80.482498 
  213000    291.87115   -182.86913   -11004.572    1.0168882   -13613.739    2609.1673    80.527662 
  214000    298.92745   -1414.2487   -10892.626    1.0209401   -13564.873    2672.2468    79.953318 
  215000    296.49284    905.43603   -11034.218    1.0185215     -13684.7    2650.4827    80.808447 
  216000    304.29554   -1851.7585   -10879.991     1.016253   -13600.226    2720.2345    81.511834 
  217000    296.84935    48.530958    -10961.63    1.0155991     -13615.3    2653.6697    81.779258 
  218000    298.31999   -1373.0148   -10915.735    1.0189782   -13582.551    2666.8165    81.598058 
  219000     294.0545   -1002.0477   -10982.397    1.0072233   -13611.082    2628.6853     82.85446 
  220000    300.58379   -111.68107   -10958.126    1.0092459   -13645.179    2687.0536    82.462805 
  221000    300.22895    941.37554   -10856.149    1.0106586    -13540.03    2683.8815    82.093547 
  222000    300.15723    1520.7936   -11048.201    1.0091943   -13731.441    2683.2404    82.566905 
  223000    292.29351    103.75869   -11052.535     1.015087   -13665.478     2612.943    82.070236 
  224000    298.32267   -1913.9265   -10912.657    1.0159566   -13579.498    2666.8404    82.425785 
  225000    308.01637    736.24958   -10876.232    1.0123805   -13629.729    2753.4968    83.302162 
  226000    303.83239    1536.1693   -10845.172    1.0122972   -13561.266    2716.0942    83.245307 
  227000    295.47134   -2190.3463   -10993.315     1.009369   -13634.666    2641.3511    83.558943 
  228000    297.91644    1467.2611   -11039.609    1.0147936   -13702.818    2663.2089    83.503085 
  229000    291.20963   -2114.1309   -11038.328    1.0233495   -13641.581    2603.2538    83.193862 
  230000    294.58064   -1711.4143   -10968.482    1.0097386   -13601.871    2633.3887    84.334139 
  231000    297.00164    2939.6096   -10975.724     1.014135   -13630.755    2655.0311    84.137473 
  232000    299.56526    90.370268    -10921.07    1.0138802   -13599.018    2677.9485    84.160539 
  233000    301.52498   -763.09059   -10966.593      1.01261   -13662.061    2695.4673    84.715058 
  234000    294.38762    -1282.596   -11080.524    1.0110726   -13712.187    2631.6632    85.056728 
  235000    295.94424    802.89962   -11028.005    1.0144884   -13673.583    2645.5785    84.607758 
  236000    299.29081   -551.00498   -11079.972    1.0144455   -13755.467    2675.4951    84.711624 
  237000    294.59663   -847.82011    -11021.57    1.0133468   -13655.102    2633.5317    85.604008 
  238000    303.65039    2165.4853   -10963.342     1.021295   -13677.809    2714.4673    84.738467 
  239000    304.16865    345.80634   -10901.411    1.0183194   -13620.512    2719.1003    84.732483 
  240000    300.86876   -2109.3235   -10961.202     1.012993   -13650.803     2689.601     85.60225 
  241000    292.80307     1722.505   -11052.188    1.0157672   -13669.686    2617.4982    85.312052 
  242000    303.19769   -81.796377   -10899.599    1.0219271    -13610.02    2710.4204    85.573803 
  243000    299.73657    1533.6374    -11000.15    1.0161048    -13679.63    2679.4799    85.566508 
  244000    299.11312   -674.30893   -10911.679    1.0213272   -13585.585    2673.9066    85.881583 
  245000    297.28669   -1643.9117   -10928.368    1.0123859   -13585.948    2657.5793    86.559203 
  246000    293.83312   -1184.3666   -11010.775    1.0146863   -13637.481    2626.7063    85.634073 
  247000    301.82476   -2415.6465   -10911.295    1.0121428   -13609.442    2698.1471    86.228996 
  248000    306.83982    121.51088    -10902.17    1.0132867   -13645.149     2742.979    86.269599 
  249000    298.76641   -2627.8711   -11056.192    1.0202192   -13726.999    2670.8072    86.322644 
  250000    305.31823    2942.5723   -10940.397    1.0184248   -13669.774    2729.3768    85.967458 
  251000    306.98101   -1724.3935   -10847.977    1.0150957   -13592.218    2744.2412    86.621524 
  252000     303.6745    7.1644078   -11020.757    1.0242654    -13735.44    2714.6828    86.041138 
  253000    295.66005    1877.8316   -10948.991     1.019116   -13592.029     2643.038      86.5684 
  254000    292.62377    723.00212   -11123.118     1.013552   -13739.013    2615.8954    87.021259 
  255000    297.69686    1083.5792    -11041.55    1.0267294   -13702.796     2661.246    86.948457 
  256000    299.43855    585.14742   -10885.863    1.0216191   -13562.679    2676.8158    86.986286 
  257000    294.08599   -1221.0536   -10978.764    1.0218184   -13607.731    2628.9668    87.307186 
  258000    302.18209   -1293.4623   -11032.233    1.0341808   -13733.575    2701.3415    86.914163 
  259000    302.14578    421.48109   -10966.797    1.0306619   -13667.814    2701.0169    87.354283 
  260000    299.62293    2690.9088   -10962.134    1.0338733   -13640.598     2678.464    86.593865 
  261000    293.93217    1058.1493   -11122.196    1.0368358   -13749.788    2627.5917    87.424117 
  262000    299.51928   -334.91149   -10901.303    1.0256032    -13578.84    2677.5374    88.033232 
  263000    299.46047   -1307.8182   -11006.628    1.0263347    -13683.64    2677.0117     88.42661 
  264000    304.03999    1111.7118   -10893.672    1.0313011   -13611.622    2717.9501    88.287838 
  265000    297.09624    1737.9688   -10972.168    1.0262506   -13628.045    2655.8768    89.191648 
  266000    302.90243    1311.5827   -11012.387    1.0296143   -13720.168     2707.781    88.516615 
  267000    292.63625    -2790.712   -11088.428    1.0239358   -13704.435    2616.0069    89.452249 
  268000    310.68472    466.31803   -10897.895    1.0198785   -13675.245    2777.3503    89.657411 
  269000    304.78248    954.04886   -10842.676     1.016494   -13567.264    2724.5875    90.628204 
  270000    307.27042   -1185.4631   -10989.063    1.0236366   -13735.891    2746.8283    89.345465 
  271000    309.49235    2067.9264   -10843.555    1.0214892   -13610.246    2766.6912    90.746926 
  272000    298.47752    -813.4314   -10895.441    1.0180645   -13563.666    2668.2246     89.76577 
  273000    303.46888    727.53511    -10934.55    1.0106692   -13647.395    2712.8447    90.748844 
  274000      295.587   -3346.7404   -10943.839    1.0108186   -13586.224     2642.385    91.159076 
  275000    303.92887    905.58159    -10936.61    1.0147904   -13653.567    2716.9568     91.06175 
  276000    305.49759   -2202.0977   -10946.155    1.0114544   -13677.135    2730.9803    91.260014 
  277000    296.07316    405.50429    -10993.06     1.009831   -13639.791     2646.731    91.061048 
  278000    293.88729   -658.31614   -10957.388      1.00549   -13584.578    2627.1906     91.33189 
  279000    305.89642    1200.1498   -10898.913    1.0062737   -13633.459    2734.5455    91.857581 
  280000    294.69968    2054.6215   -11023.245    1.0116894   -13657.698    2634.4528    91.528255 
  281000    298.40308   -1472.4219   -11002.386    1.0131931   -13669.945    2667.5592    91.244079 
  282000    303.77167    2041.7396   -10968.546    1.0212413   -13684.097    2715.5515    91.753504 
  283000     297.9901   -1424.9478   -11034.069    1.0166769   -13697.936    2663.8674    92.254462 
  284000    299.01272   -1219.8155   -10920.386    1.0137329   -13593.395    2673.0091    92.864904 
  285000    302.08773   -1655.3796   -10855.697    1.0118102   -13556.195    2700.4979    92.981591 
  286000    299.84315   -681.56096   -10863.863    1.0173246   -13544.296    2680.4326    94.041391 
  287000    301.30118    547.97532   -10918.941    1.0166949   -13612.408    2693.4666    93.686904 
  288000    292.59379   -1390.7656   -10999.008    1.0154054   -13614.636    2615.6274    93.834942 
  289000    298.04463   -697.67756   -10939.325    1.0135995    -13603.68    2664.3548    93.965534 
  290000      295.799    1525.2108   -10973.168    1.0125824   -13617.448    2644.2801    93.962321 
  291000    300.60243   -1759.4788   -10920.772    1.0159492   -13607.993    2687.2202    94.085521 
  292000    301.94996   -2264.2209   -10773.113    1.0104429   -13472.379    2699.2664    94.632292 
  293000    299.65131    3237.3749   -10902.328     1.019948   -13581.046    2678.7177    94.469029 
  294000    292.94236    2758.1258   -11107.259    1.0208943   -13726.003    2618.7434    94.725956 
  295000    300.27333   -155.40385    -10847.99     1.011568   -13532.268    2684.2782     94.83675 
  296000    299.00564    -1320.133   -10885.571    1.0172474   -13558.517    2672.9458    95.544033 
  297000    295.37324   -171.30826   -10954.632    1.0092785   -13595.106    2640.4741    96.672207 
  298000    294.31968    1342.1887   -10933.361    1.0216091   -13564.417    2631.0559    95.614304 
  299000    300.56191    506.00649   -11031.158    1.0178269   -13718.016     2686.858    96.408553 
  300000    295.17183   -758.94839   -10879.795    1.0085895   -13518.469    2638.6737    97.271423 
  301000    300.89816    81.709039   -10952.004    1.0162059   -13641.868    2689.8638    96.947092 
  302000    303.23237   -299.45111   -10877.139    1.0313702    -13587.87    2710.7304    96.387467 
  303000    297.67441    367.60924   -11032.931    1.0187283   -13693.976    2661.0453    97.663172 
  304000    294.63638   -23.285636   -10991.626    1.0137183   -13625.513     2633.887     98.24256 
  305000    300.12736   -578.75575    -10826.78    1.0162868   -13509.753    2682.9733    97.570557 
  306000     304.4762    7.3364568   -10908.834    1.0184111   -13630.684    2721.8496     98.13558 
  307000    302.45704   -1965.9269   -10899.903    1.0256062   -13603.702    2703.7994    97.622209 
  308000     296.9054    1713.6512   -11030.408    1.0218904   -13684.579    2654.1707    98.009153 
  309000    298.63517    2099.7061   -10966.566    1.0238305     -13636.2     2669.634    97.952951 
  310000    301.85615   -1496.4952   -10861.997    1.0218069   -13560.425    2698.4277     97.78685 
  311000    298.93699     245.5446   -10936.971    1.0258104   -13609.304    2672.3321    97.939285 
  312000    293.95096   -842.74883   -11005.352     1.020755   -13633.112    2627.7597    99.090075 
  313000    303.24389   -1311.9432   -10951.916    1.0129722   -13662.749    2710.8334    99.660062 
  314000    294.11543    2301.5345   -11126.651    1.0153466   -13755.881      2629.23    99.687373 
  315000    303.63995   -2576.3998   -11023.917    1.0153749   -13738.291     2714.374    99.564408 
  316000    296.66316     -980.431   -11002.007     1.017597   -13654.013    2652.0053    99.329584 
  317000    305.50475    1170.7436   -10896.503    1.0254989   -13627.548    2731.0443    99.095142 
  318000    301.66685     2093.117   -10955.636    1.0236228   -13652.372    2696.7355    98.906838 
  319000    295.67575    -2091.582   -10964.212    1.0186453   -13607.391    2643.1784    99.309193 
  320000    294.69481    560.09899   -11046.145    1.0206427   -13680.554    2634.4093    100.22901 
  321000    297.97316   -342.13615   -11011.276    1.0241502   -13674.992     2663.716    99.815059 
  322000    297.98897    228.97362     -10910.9    1.0192617   -13574.757    2663.8573    99.604314 
  323000    304.50478   -371.63055   -11003.404    1.0221332   -13725.509    2722.1051    100.25992 
  324000    307.05147    740.88589   -10844.621    1.0183727   -13589.492    2744.8711    100.29555 
  325000    298.11996   -1943.9066    -10900.99    1.0174141   -13566.018    2665.0283    100.73787 
  326000    296.73161   -123.64366   -11075.221    1.0244983   -13727.838    2652.6172    100.21633 
  327000    302.57279     -594.777   -10957.844    1.0191311   -13662.678    2704.8341    101.07018 
  328000    301.06011    360.71875   -11000.845    1.0186474   -13692.157    2691.3116    100.93984 
  329000    291.51792   -402.01513   -11085.835    1.0200442   -13691.845    2606.0097    101.71127 
  330000    292.66544    1293.2075   -11026.828    1.0155444   -13643.096    2616.2679    102.43678 
  331000    304.43035   -2999.9872    -11033.61    1.0113534    -13755.05    2721.4397    102.45537 
  332000    306.89879    1830.9437   -10966.029    1.0121374   -13709.535    2743.5062    102.48884 
  333000    301.05034   -1574.3604   -10947.704     1.012729   -13638.928    2691.2242    102.36187 
  334000    301.07057    1054.7947    -10950.08    1.0143736   -13641.485    2691.4051    102.33628 
  335000    308.51569   -1485.6396   -10857.914    1.0137195   -13615.874    2757.9604    102.58375 
  336000    294.77253    1033.1457   -11012.218    1.0100166   -13647.322    2635.1041    102.94505 
  337000    302.31718    996.62961   -10939.927     1.018487   -13642.476    2702.5491    102.42133 
  338000    297.86137    2316.4556   -11026.684    1.0212295   -13689.401    2662.7167    102.08438 
  339000    297.89306   -360.68339   -10910.615     1.015489   -13573.614         2663    103.40341 
  340000    297.72628    1938.3507   -11070.003    1.0127473   -13731.512     2661.509    103.89378 
  341000    300.88982   -1579.0386   -11051.363    1.0082635   -13741.152    2689.7893     103.4992 
  342000    302.73385     310.1045   -10935.327    1.0079313   -13641.601    2706.2739    104.06584 
  343000    307.37794    317.77743   -10816.171    1.0134638    -13563.96    2747.7895    104.02442 
  344000      294.286   -1137.6342   -11018.869    1.0081731   -13649.624    2630.7548    104.70361 
  345000    297.96907   -943.65256   -10956.231    1.0085544    -13619.91    2663.6794    104.92063 
  346000    299.53569   -399.58314   -10960.278     1.001718   -13637.962    2677.6841    105.31108 
  347000    294.18443     1349.816   -11037.948    1.0175609   -13667.795    2629.8468    104.31055 
  348000    293.57818   -142.89139   -11075.078    1.0072566   -13699.505    2624.4272    105.72269 
  349000    299.31349    -362.5626   -11005.135    1.0103458   -13680.832    2675.6978    105.15966 
  350000    298.56866    896.00547   -10993.178    1.0130958   -13662.218    2669.0394    104.89092 
  351000    294.71492   -892.47007   -11093.384    1.0072079   -13727.973    2634.5891     105.7189 
  352000    302.07055    1806.2689   -10992.218    1.0132432   -13692.562    2700.3443    105.81043 
  353000    299.32502   -1032.4986    -11035.58    1.0076498   -13711.381    2675.8008    106.46607 
  354000    302.85459   -415.01398   -10962.276    1.0115653    -13669.63    2707.3532    105.98958 
  355000    298.29788    424.94025   -10998.697    1.0134761   -13665.315    2666.6188    105.94785 
  356000    302.85686    1007.6903   -10986.458    1.0088804   -13693.832    2707.3736    106.74445 
  357000    292.68546     1629.327   -11142.172    1.0202424   -13758.619    2616.4469    105.85069 
  358000    297.39371    519.48425   -10996.371    1.0180132   -13654.907     2658.536    105.63206 
  359000    302.12464   -656.28832   -10964.902    1.0114332    -13665.73    2700.8279     106.8238 
  360000    297.06667   -1628.1723   -11084.617    1.0106141   -13740.229    2655.6125    106.66702 
  361000    303.69285     2452.424   -10917.141    1.0099994   -13631.988    2714.8468    107.18145 
  362000    297.30084   -121.31553   -11050.859    1.0218169   -13708.564    2657.7058    106.26076 
  363000     299.7611    818.97814   -11001.071    1.0212609    -13680.77    2679.6992    106.88582 
  364000    299.13823    464.54847   -11069.898    1.0248226   -13744.029    2674.1311    107.12126 
  365000    300.31519    1088.0338   -11033.144    1.0238059   -13717.796    2684.6524    106.74121 
  366000    297.74747    1601.5532   -10980.861    1.0223584    -13642.56    2661.6984    106.85673 
  367000    301.89617   -1430.3117   -11017.103    1.0222638   -13715.889    2698.7855    106.55105 
  368000    299.30485    73.343294   -11033.517    1.0185456   -13709.138    2675.6205     107.7206 
  369000    305.28778   -525.24654   -10941.414    1.0243799   -13670.519    2729.1047    106.70208 
  370000    298.48537    2371.9212   -11033.814    1.0189915   -13702.109    2668.2948    107.25783 
  371000    300.01519    -419.1848   -10949.231    1.0140356   -13631.201    2681.9706    108.19728 
  372000    309.37722    40.143227   -10868.379    1.0118581   -13634.041     2765.662    108.50902 
  373000     294.9719   -788.85553    -11086.89    1.0110678   -13723.776    2636.8864     108.7712 
  374000    306.99923   -136.93826   -11026.203    1.0087818   -13770.607     2744.404    109.46242 
  375000     299.7561    1615.4006    -11024.79    1.0149744   -13704.444    2679.6545    108.53514 
  376000    297.61133   -1157.5107   -11082.867    1.0059852   -13743.349    2660.4814    110.07433 
  377000    298.16287    487.75431   -11105.659    1.0093366   -13771.071    2665.4119    109.22521 
  378000    311.39715   -189.38671   -10929.769    1.0059933   -13713.488     2783.719    109.50878 
  379000    306.21604   -60.027235   -10901.736    1.0070693   -13639.139    2737.4028    109.88104 
  380000     300.0509    850.35737   -11045.547    1.0041049   -13727.837    2682.2898    110.57519 
  381000    305.56204   -2222.4412   -10962.964     1.010711   -13694.521    2731.5564    110.03324 
  382000    304.32489    1450.4833   -11039.713    1.0131832    -13760.21    2720.4969    109.86936 
  383000     298.0498   -2344.0436   -11051.556    1.0096834   -13715.957    2664.4011    110.54431 
  384000    302.90606    403.64805   -11022.101    1.0096235   -13729.914    2707.8134     110.5465 
  385000    309.82046   -43.479951   -10886.133   0.99963161   -13655.758    2769.6243     111.6423 
  386000     293.9036   -1869.8802   -10974.044     1.002195    -13601.38    2627.3363    111.28311 
  387000     304.4322    709.49049    -10936.79     1.016601   -13658.246    2721.4562    110.68167 
  388000     305.3909   -49.268662   -10884.685    1.0147598   -13614.711    2730.0265     110.8903 
  389000    301.62546    2183.1109   -10958.578    1.0067987   -13654.944    2696.3655    111.45404 
  390000    292.47092   -675.45253   -11054.172    1.0128373   -13668.701     2614.529    111.02694 
  391000    294.61973    1098.1968   -10996.658    1.0127381   -13630.396    2633.7382    110.95801 
  392000    296.33418   -144.63548   -10948.035    1.0098949     -13597.1    2649.0644    111.66814 
  393000    296.10181   -1269.3832   -11139.586    1.0115419   -13786.574    2646.9871    111.78354 
  394000    302.82042    2432.2327   -10984.353     1.008545   -13691.401    2707.0478     112.4484 
  395000    296.31994    1037.4514   -10947.665    1.0080595   -13596.602    2648.9371    112.25225 
  396000    295.09725    230.75111   -11036.144    1.0157345   -13674.151    2638.0069    111.88558 
  397000    304.78608   -751.59163   -10937.128    1.0097936   -13661.748    2724.6197     112.4539 
  398000    303.61638   -1684.5043   -10969.887     1.015029    -13684.05    2714.1633    112.72401 
  399000    298.02921    216.43829   -10919.538    1.0110172   -13583.755     2664.217    112.53517 
  400000    297.44089    221.01832   -11017.498    1.0047258   -13676.456    2658.9578    113.59709 
  401000    308.54712    8.8773906   -10825.085    1.0047076   -13583.326    2758.2414    113.72256 
  402000    301.39232   -2816.0748   -10937.991    1.0219266   -13632.272    2694.2814    112.88858 
  403000    298.59366   -191.69068   -10950.895    1.0075726   -13620.158    2669.2629    112.70704 
  404000    307.27597    213.57666   -10950.211    1.0243706   -13697.089     2746.878    112.53874 
  405000    298.57199   -623.71889   -11048.886    1.0079492   -13717.956    2669.0692    113.31455 
  406000    298.75615   -11.461587   -10937.209    1.0004128   -13607.924    2670.7154    114.66735 
  407000    296.68498   -1583.8723   -11001.083    1.0030406   -13653.283    2652.2004    114.98083 
  408000    298.62826   -345.37278   -10911.719    1.0125351   -13581.292    2669.5722    113.92802 
  409000    299.30353    1149.4194   -10852.251    1.0153155    -13527.86    2675.6088    114.08729 
  410000     301.9862    -2163.978   -10943.449    1.0078244   -13643.039    2699.5904    114.75358 
  411000    301.13805   -380.48474    -10872.05     1.012077   -13564.058    2692.0084    115.42223 
  412000    293.31012   -891.08209    -11000.87    1.0088231   -13622.901     2622.031     115.4614 
  413000    295.78534   -579.20488   -11025.852    1.0184393    -13670.01    2644.1581    115.11307 
  414000    302.89856   -1484.8378   -10935.716    1.0104513   -13643.463    2707.7463    115.10517 
  415000    291.15248   -539.24616   -11043.481    1.0108139   -13646.224    2602.7428    115.03094 
  416000    305.78222    1822.6778   -10860.371    1.0236627   -13593.896    2733.5247    114.27749 
  417000    287.96719    711.40091   -11149.405    1.0142194   -13723.673    2574.2681    115.77149 
  418000    304.64689   -1104.6554   -10941.781    1.0115158   -13665.156    2723.3755    115.88861 
  419000    301.34934   -601.59337    -10898.25    1.0047458   -13592.147    2693.8971    116.77889 
  420000    309.44744    710.54094   -10884.309    1.0141277   -13650.599    2766.2897    115.62662 
  421000    296.74322   -1774.8326   -11038.138    1.0122215   -13690.859     2652.721    115.76329 
  422000       302.06    809.64652   -10923.226    1.0087445   -13623.476      2700.25    116.68837 
  423000      305.887    125.30925   -10904.224    1.0088311   -13638.685    2734.4614    116.50565 
  424000    291.48267   -811.29309   -10991.729    1.0133056   -13597.423    2605.6945    116.86544 
  425000     304.6499    641.11233   -10839.287    1.0218492    -13562.69    2723.4023    116.39425 
  426000    301.57976    1208.7905   -10922.039    1.0222121   -13617.996     2695.957    116.56027 
  427000    298.80483   -1795.9815   -10980.429    1.0215328    -13651.58    2671.1507    116.28031 
  428000    303.25754   -2025.4406   -10831.806    1.0214634   -13542.761    2710.9555    116.87844 
  429000    299.65199    527.53328   -10971.161    1.0225155   -13649.885    2678.7238    117.31784 
  430000    298.98438    1505.5096   -10882.535    1.0160514   -13555.291    2672.7558    118.26343 
  431000     299.0459    1060.8169   -10974.518     1.014693   -13647.824    2673.3057    118.41052 
  432000    304.25859    2897.4696   -11027.047    1.0192892   -13746.952    2719.9043    118.89236 
  433000    293.40024    211.17052   -11151.523    1.0176481   -13774.359    2622.8365    119.50443 
  434000    298.73433   -386.68723   -11013.098    1.0124562   -13683.619    2670.5204    119.58638 
  435000    299.53878    640.39112   -10894.257    1.0058134   -13571.969    2677.7117    120.02546 
  436000    295.41834   -2224.9034   -11032.618    1.0056094   -13673.495    2640.8773    120.65646 
  437000    298.01852     1327.136   -11046.151    1.0120698   -13710.273    2664.1215    120.56224 
  438000    292.92777    791.27739    -11146.34    1.0143206   -13764.953     2618.613    120.59788 
  439000    300.65238   -2384.7897   -11006.503    1.0044149    -13694.17    2687.6667    121.21031 
  440000    298.94444    190.25572   -11013.842    1.0036268    -13686.24    2672.3987    121.66029 
  441000    302.79499   -941.88401   -10910.101    1.0008284   -13616.922    2706.8205    121.30339 
  442000    299.03565   -1025.1244   -11083.867    1.0010661   -13757.081     2673.214    122.27279 
  443000    294.50256    563.46982   -11119.446    1.0002159   -13752.137    2632.6907    121.78492 
  444000    300.71776     1764.578   -10969.919   0.99470441    -13658.17    2688.2512    123.81456 
  445000    288.05977   -1019.8703   -11067.196   0.99719374   -13642.292    2575.0957    123.10234 
  446000    302.41225    878.07688    -11027.63    1.0052447   -13731.028     2703.399    123.14602 
  447000    300.14838   -328.16898   -11087.124    1.0067431   -13770.285    2683.1612    123.46495 
  448000    307.20271   -172.16983   -10935.151   0.99980026   -13681.374     2746.223    123.75422 
  449000    305.43387    -1936.412   -10874.688   0.98752665   -13605.098    2730.4106    125.77216 
  450000    302.55772   -256.18026   -10960.998    1.0089526   -13665.697    2704.6994    123.95149 
  451000      298.011   -235.94243   -11064.917     1.017318   -13728.972    2664.0542    123.04265 
  452000    299.92807    430.65016    -10958.42    1.0181664   -13639.611    2681.1918    122.71516 
  453000    305.85512    142.03352   -10919.108    1.0120666   -13653.284    2734.1763    123.69404 
  454000    296.08675   -1250.4675   -11008.153    1.0083126   -13655.005    2646.8525    123.92977 
  455000    299.74552    1528.1157   -11005.797    1.0149051   -13685.357    2679.5599    123.37954 
  456000    293.25785   -2466.6833   -11103.145    1.0063993   -13724.709    2621.5637    124.36977 
  457000     290.9308    1029.9241   -11004.176    1.0142502   -13604.937    2600.7612    123.86464 
  458000    295.81395    358.80211   -11022.493    1.0125789   -13666.907    2644.4138    124.33335 
  459000     296.9991   -2664.5861   -11046.874    1.0097299   -13701.882    2655.0084    124.39625 
  460000    299.36308    1222.8802   -11045.144    1.0077325   -13721.285    2676.1411    124.58887 
  461000    299.30405   -861.10082   -10986.597    1.0113339   -13662.211    2675.6134    124.55165 
  462000    302.62959   -201.17906   -10925.815    1.0107113   -13631.157    2705.3419    124.64265 
  463000    303.38092   -1781.1109   -10922.327    1.0119351   -13634.386    2712.0584    124.27467 
  464000    309.44351    36.958977   -10877.183    1.0080853   -13643.438    2766.2546    125.94381 
  465000    292.22879    -1285.372   -10988.367    1.0050246   -13600.731    2612.3645    125.95363 
  466000    295.81497   -93.808539   -11045.831    1.0167452   -13690.254    2644.4229    125.95469 
  467000    300.42968    18.999327   -10991.047    1.0114214   -13676.723    2685.6759    125.78267 
  468000     304.1149   -96.176795   -10867.154    1.0181359   -13585.773    2718.6197    125.36799 
  469000    301.90911    1193.1356   -10949.603    1.0149276   -13648.505    2698.9012    125.46109 
  470000    301.26181   -2173.0482   -10950.187    1.0056158   -13643.302    2693.1147    126.87046 
  471000    296.15996   -2185.7622   -10962.915    1.0148227   -13610.422    2647.5069    126.77301 
  472000    304.63407     630.2062   -10965.245    1.0114806   -13688.505    2723.2609    127.59888 
  473000    299.68709   -2348.3758   -10986.961    1.0229113   -13665.998    2679.0375    126.21121 
  474000    299.15277    553.56201   -10968.941    1.0191551   -13643.202    2674.2611    127.08276 
  475000    301.45168    1319.2742    -10914.89    1.0179834   -13609.702     2694.812    126.43665 
  476000    306.28881    80.035097    -10904.38    1.0263407   -13642.434    2738.0533    126.27266 
  477000    310.08148    237.76421   -10872.505    1.0215564   -13644.462    2771.9577    126.81903 
  478000    303.29223   -851.01466   -10907.579    1.0279425   -13618.844    2711.2655    125.65681 
  479000     302.4378    1116.0519   -10982.094    1.0279745   -13685.721    2703.6274    125.51111 
  480000     299.5425    1494.1355   -10903.157    1.0165963   -13580.902     2677.745    126.68767 
  481000    296.21241   -771.92852   -10981.671     1.017614   -13629.647    2647.9758    127.10105 
  482000    302.18392   -107.86598   -10900.716    1.0216229   -13602.074    2701.3579    126.84716 
  483000    295.28169   -386.49893   -10888.392    1.0156532   -13528.047    2639.6557     126.6459 
  484000    295.97014    1613.3415   -11040.521    1.0190339   -13686.331    2645.8101    127.72016 
  485000    306.43163     -2195.35   -10903.147    1.0250242   -13642.477      2739.33    126.59342 
  486000    304.23264    3.3062121   -10862.566    1.0146614   -13582.238    2719.6723    127.89042 
  487000    300.41942    423.67194   -10945.544    1.0188986   -13631.128    2685.5842    127.90928 
  488000    303.68168   -1495.1047   -10901.744    1.0128294   -13616.491     2714.747    128.52591 
  489000    296.49255    -291.1537   -10971.161    1.0115764   -13621.641    2650.4801    128.98429 
  490000    304.60328     2523.688   -10997.665    1.0171644    -13720.65    2722.9856     128.9932 
  491000    299.07425    194.67309   -10947.988    1.0129695   -13621.547    2673.5591    129.13587 
  492000    300.46304   -212.33903   -10975.118    1.0165839   -13661.093    2685.9741    129.43383 
  493000    300.05215   -120.49082    -11021.03    1.0089609   -13703.331     2682.301    130.14552 
  494000    309.06908    778.94292   -10873.304    1.0237705   -13636.212    2762.9074    129.65832 
  495000     296.1242   -1250.3596   -11013.918    1.0211707   -13661.106    2647.1873    129.58435 
  496000    297.81013    257.18781   -10891.934    1.0247682   -13554.193    2662.2585    129.42218 
  497000    296.91875    4.9309188   -10924.917    1.0322022   -13579.207    2654.2901    128.77949 
  498000    296.58696    502.93547   -10877.063    1.0274534   -13528.387    2651.3241    130.85966 
  499000    302.86743   -1758.8996   -10986.237    1.0217325   -13693.705     2707.468    130.35267 
  500000    305.43796     1439.965   -10937.767    1.0267899   -13668.214    2730.4472    131.10166 
Loop time of 6101.03 on 8 procs for 500000 steps with 3000 atoms

Performance: 7.081 ns/day, 3.389 hours/ns, 81.953 timesteps/s
98.5% CPU use with 8 MPI tasks x 1 OpenMP threads

MPI task timing breakdown:
Section |  min time  |  avg time  |  max time  |%varavg| %total
---------------------------------------------------------------
Pair    | 5289.8     | 5336.3     | 5378.8     |  32.9 | 87.47
Bond    | 9.4619     | 9.675      | 10.051     |   5.3 |  0.16
Kspace  | 458.75     | 501.15     | 547.41     | 106.8 |  8.21
Neigh   | 62.319     | 62.342     | 62.356     |   0.1 |  1.02
Comm    | 121.84     | 122.27     | 122.65     |   2.2 |  2.00
Output  | 0.039309   | 0.054554   | 0.056886   |   2.5 |  0.00
Modify  | 31.014     | 47.384     | 50.128     |  90.0 |  0.78
Other   |            | 21.86      |            |       |  0.36

Nlocal:        375.000 ave         407 max         344 min
Histogram: 1 1 1 0 0 2 1 0 1 1
Nghost:        9658.88 ave        9738 max        9531 min
Histogram: 1 1 0 0 0 1 0 3 0 2
Neighs:        289755.0 ave      313933 max      265791 min
Histogram: 2 0 0 1 0 2 1 0 0 2

Total # of neighbors = 2318042
Ave neighs/atom = 772.68067
Ave special neighs/atom = 2.0000000
Neighbor list builds = 8418
Dangerous builds = 0
Total wall time: 1:41:41
